(set-info :smt-lib-version 2.6)
(set-logic QF_LRA)
(set-info :source |
TLP-GP automated DTP to SMT-LIB encoding for planning
by F.Maris and P.Regnier, IRIT - Universite Paul Sabatier, Toulouse

|)
(set-info :category "industrial")
(set-info :status sat)
(declare-fun St_spy_variable () Real)
(declare-fun t_Init_0 () Real)
(declare-fun t_Goal_10 () Real)
(declare-fun t_A_N1_ra_ga2_1_gb1_1_1 () Real)
(declare-fun t_B_N1_ra_rb_gb2_1_2 () Real)
(declare-fun t_C_N1_rb_ga1_1_gc2_1_3 () Real)
(declare-fun t_A_N1_ra_ga3_1_gb1_1_1 () Real)
(declare-fun t_B_N1_ra_rb_gb3_1_2 () Real)
(declare-fun t_C_N1_rb_ga1_1_gc3_1_3 () Real)
(declare-fun t_A_N2_ga1_1_gb1_1_gc1_1_ra_ga2_2_gb1_2_4 () Real)
(declare-fun t_B_N2_ra_rb_gb2_2_5 () Real)
(declare-fun t_C_N2_rb_ga1_2_gc2_2_6 () Real)
(declare-fun t_A_N2_ga1_1_gb1_1_gc1_1_ra_ga3_2_gb1_2_4 () Real)
(declare-fun t_B_N2_ra_rb_gb3_2_5 () Real)
(declare-fun t_C_N2_rb_ga1_2_gc3_2_6 () Real)
(declare-fun t_C_N3_rb_ga1_3_gc1_3_9 () Real)
(declare-fun t_A_N3_ga1_2_gb1_2_gc1_2_ra_ga2_3_gb1_3_7 () Real)
(declare-fun t_B_N3_ra_rb_gb2_3_8 () Real)
(declare-fun t_C_N3_rb_ga1_3_gc2_3_9 () Real)
(declare-fun t_A_N3_ga1_2_gb1_2_gc1_2_ra_ga3_3_gb1_3_7 () Real)
(declare-fun t_B_N3_ra_rb_gb3_3_8 () Real)
(declare-fun t_C_N2_rb_ga1_2_gc1_2_6 () Real)
(declare-fun t_B_N2_ra_rb_gb1_2_5 () Real)
(declare-fun t_C_N1_rb_ga1_1_gc1_1_3 () Real)
(declare-fun t_B_N1_ra_rb_gb1_1_2 () Real)
(declare-fun t_A_N1_ra_ga1_1_gb1_1_1 () Real)
(declare-fun t_A_N2_ga1_1_gb1_1_gc1_1_ra_ga1_2_gb1_2_4 () Real)
(declare-fun t_A_N3_ga1_2_gb1_2_gc1_2_ra_ga1_3_gb1_3_7 () Real)
(declare-fun t_B_N3_ra_rb_gb1_3_8 () Real)
(declare-fun t_C_N3_rb_ga1_3_gc3_3_9 () Real)
(assert (let ((?v_3 (- t_Goal_10 t_A_N1_ra_ga2_1_gb1_1_1)) (?v_8 (- t_Goal_10 t_B_N1_ra_rb_gb2_1_2)) (?v_13 (- t_Goal_10 t_C_N1_rb_ga1_1_gc2_1_3)) (?v_14 (- t_Goal_10 t_A_N1_ra_ga3_1_gb1_1_1)) (?v_16 (- t_Goal_10 t_B_N1_ra_rb_gb3_1_2)) (?v_18 (- t_Goal_10 t_C_N1_rb_ga1_1_gc3_1_3)) (?v_22 (- t_Goal_10 t_A_N2_ga1_1_gb1_1_gc1_1_ra_ga2_2_gb1_2_4)) (?v_27 (- t_Goal_10 t_B_N2_ra_rb_gb2_2_5)) (?v_32 (- t_Goal_10 t_C_N2_rb_ga1_2_gc2_2_6)) (?v_33 (- t_Goal_10 t_A_N2_ga1_1_gb1_1_gc1_1_ra_ga3_2_gb1_2_4)) (?v_35 (- t_Goal_10 t_B_N2_ra_rb_gb3_2_5)) (?v_37 (- t_Goal_10 t_C_N2_rb_ga1_2_gc3_2_6)) (?v_44 (- t_Goal_10 t_C_N3_rb_ga1_3_gc1_3_9)) (?v_45 (- t_Goal_10 t_A_N3_ga1_2_gb1_2_gc1_2_ra_ga2_3_gb1_3_7)) (?v_50 (- t_Goal_10 t_B_N3_ra_rb_gb2_3_8)) (?v_52 (- t_Goal_10 t_C_N3_rb_ga1_3_gc2_3_9)) (?v_53 (- t_Goal_10 t_A_N3_ga1_2_gb1_2_gc1_2_ra_ga3_3_gb1_3_7)) (?v_55 (- t_Goal_10 t_B_N3_ra_rb_gb3_3_8)) (?v_21 (- t_Goal_10 t_C_N2_rb_ga1_2_gc1_2_6)) (?v_20 (- t_Goal_10 t_B_N2_ra_rb_gb1_2_5)) (?v_2 (- t_Goal_10 t_C_N1_rb_ga1_1_gc1_1_3)) (?v_1 (- t_Goal_10 t_B_N1_ra_rb_gb1_1_2)) (?v_0 (- t_Goal_10 t_A_N1_ra_ga1_1_gb1_1_1)) (?v_19 (- t_Goal_10 t_A_N2_ga1_1_gb1_1_gc1_1_ra_ga1_2_gb1_2_4)) (?v_38 (- t_Goal_10 t_A_N3_ga1_2_gb1_2_gc1_2_ra_ga1_3_gb1_3_7)) (?v_39 (- t_Goal_10 t_B_N3_ra_rb_gb1_3_8)) (?v_62 (- t_Goal_10 t_C_N3_rb_ga1_3_gc3_3_9)) (?v_59 (- t_B_N1_ra_rb_gb1_1_2 t_A_N1_ra_ga1_1_gb1_1_1))) (let ((?v_4 (< ?v_59 5)) (?v_15 (- t_B_N1_ra_rb_gb3_1_2 t_A_N1_ra_ga1_1_gb1_1_1))) (let ((?v_5 (< ?v_15 5)) (?v_7 (- t_B_N1_ra_rb_gb2_1_2 t_A_N1_ra_ga1_1_gb1_1_1))) (let ((?v_6 (< ?v_7 5)) (?v_58 (- t_C_N1_rb_ga1_1_gc1_1_3 t_B_N1_ra_rb_gb1_1_2))) (let ((?v_9 (< ?v_58 4)) (?v_17 (- t_C_N1_rb_ga1_1_gc3_1_3 t_B_N1_ra_rb_gb1_1_2))) (let ((?v_10 (< ?v_17 4)) (?v_12 (- t_C_N1_rb_ga1_1_gc2_1_3 t_B_N1_ra_rb_gb1_1_2))) (let ((?v_11 (< ?v_12 4)) (?v_57 (- t_B_N2_ra_rb_gb1_2_5 t_A_N2_ga1_1_gb1_1_gc1_1_ra_ga1_2_gb1_2_4))) (let ((?v_23 (< ?v_57 5)) (?v_34 (- t_B_N2_ra_rb_gb3_2_5 t_A_N2_ga1_1_gb1_1_gc1_1_ra_ga1_2_gb1_2_4))) (let ((?v_24 (< ?v_34 5)) (?v_26 (- t_B_N2_ra_rb_gb2_2_5 t_A_N2_ga1_1_gb1_1_gc1_1_ra_ga1_2_gb1_2_4))) (let ((?v_25 (< ?v_26 5)) (?v_56 (- t_C_N2_rb_ga1_2_gc1_2_6 t_B_N2_ra_rb_gb1_2_5))) (let ((?v_28 (< ?v_56 4)) (?v_36 (- t_C_N2_rb_ga1_2_gc3_2_6 t_B_N2_ra_rb_gb1_2_5))) (let ((?v_29 (< ?v_36 4)) (?v_31 (- t_C_N2_rb_ga1_2_gc2_2_6 t_B_N2_ra_rb_gb1_2_5))) (let ((?v_30 (< ?v_31 4)) (?v_79 (- t_A_N2_ga1_1_gb1_1_gc1_1_ra_ga2_2_gb1_2_4 t_C_N1_rb_ga1_1_gc1_1_3)) (?v_68 (- t_A_N2_ga1_1_gb1_1_gc1_1_ra_ga2_2_gb1_2_4 t_A_N1_ra_ga1_1_gb1_1_1)) (?v_78 (- t_A_N2_ga1_1_gb1_1_gc1_1_ra_ga3_2_gb1_2_4 t_C_N1_rb_ga1_1_gc1_1_3)) (?v_66 (- t_A_N2_ga1_1_gb1_1_gc1_1_ra_ga3_2_gb1_2_4 t_A_N1_ra_ga1_1_gb1_1_1)) (?v_60 (- t_B_N3_ra_rb_gb1_3_8 t_A_N3_ga1_2_gb1_2_gc1_2_ra_ga1_3_gb1_3_7))) (let ((?v_46 (< ?v_60 5)) (?v_54 (- t_B_N3_ra_rb_gb3_3_8 t_A_N3_ga1_2_gb1_2_gc1_2_ra_ga1_3_gb1_3_7))) (let ((?v_47 (< ?v_54 5)) (?v_49 (- t_B_N3_ra_rb_gb2_3_8 t_A_N3_ga1_2_gb1_2_gc1_2_ra_ga1_3_gb1_3_7))) (let ((?v_48 (< ?v_49 5)) (?v_61 (- t_C_N3_rb_ga1_3_gc3_3_9 t_B_N3_ra_rb_gb1_3_8))) (let ((?v_40 (< ?v_61 4)) (?v_51 (- t_C_N3_rb_ga1_3_gc2_3_9 t_B_N3_ra_rb_gb1_3_8))) (let ((?v_41 (< ?v_51 4)) (?v_43 (- t_C_N3_rb_ga1_3_gc1_3_9 t_B_N3_ra_rb_gb1_3_8))) (let ((?v_42 (< ?v_43 4)) (?v_133 (- t_A_N3_ga1_2_gb1_2_gc1_2_ra_ga2_3_gb1_3_7 t_C_N2_rb_ga1_2_gc1_2_6)) (?v_122 (- t_A_N3_ga1_2_gb1_2_gc1_2_ra_ga2_3_gb1_3_7 t_A_N2_ga1_1_gb1_1_gc1_1_ra_ga1_2_gb1_2_4)) (?v_132 (- t_A_N3_ga1_2_gb1_2_gc1_2_ra_ga3_3_gb1_3_7 t_C_N2_rb_ga1_2_gc1_2_6)) (?v_120 (- t_A_N3_ga1_2_gb1_2_gc1_2_ra_ga3_3_gb1_3_7 t_A_N2_ga1_1_gb1_1_gc1_1_ra_ga1_2_gb1_2_4)) (?v_130 (- t_A_N3_ga1_2_gb1_2_gc1_2_ra_ga1_3_gb1_3_7 t_C_N2_rb_ga1_2_gc1_2_6)) (?v_76 (- t_A_N2_ga1_1_gb1_1_gc1_1_ra_ga1_2_gb1_2_4 t_C_N1_rb_ga1_1_gc1_1_3)) (?v_65 (- t_A_N2_ga1_1_gb1_1_gc1_1_ra_ga1_2_gb1_2_4 t_A_N1_ra_ga1_1_gb1_1_1)) (?v_119 (- t_A_N3_ga1_2_gb1_2_gc1_2_ra_ga1_3_gb1_3_7 t_A_N2_ga1_1_gb1_1_gc1_1_ra_ga1_2_gb1_2_4)) (?v_63 (- t_A_N1_ra_ga3_1_gb1_1_1 t_A_N1_ra_ga1_1_gb1_1_1))) (let ((?v_110 (< ?v_63 5)) (?v_109 (> ?v_63 5))) (let ((?v_88 (or ?v_110 ?v_109)) (?v_64 (- t_A_N1_ra_ga2_1_gb1_1_1 t_A_N1_ra_ga1_1_gb1_1_1))) (let ((?v_86 (< ?v_64 5)) (?v_85 (> ?v_64 5)) (?v_233 (< ?v_65 5)) (?v_67 (> ?v_59 1))) (let ((?v_89 (or ?v_233 ?v_67)) (?v_167 (< ?v_66 5))) (let ((?v_90 (or ?v_167 ?v_67)) (?v_137 (< ?v_68 5))) (let ((?v_91 (or ?v_137 ?v_67)) (?v_75 (< ?v_0 6)) (?v_69 (- t_A_N1_ra_ga1_1_gb1_1_1 t_A_N1_ra_ga3_1_gb1_1_1))) (let ((?v_97 (> ?v_69 5)) (?v_108 (< ?v_69 5)) (?v_70 (- t_A_N1_ra_ga1_1_gb1_1_1 t_A_N1_ra_ga2_1_gb1_1_1))) (let ((?v_81 (> ?v_70 5)) (?v_80 (< ?v_70 5)) (?v_92 (- t_C_N1_rb_ga1_1_gc1_1_3 t_A_N1_ra_ga1_1_gb1_1_1))) (let ((?v_77 (< ?v_92 4)) (?v_94 (- t_C_N1_rb_ga1_1_gc3_1_3 t_A_N1_ra_ga1_1_gb1_1_1))) (let ((?v_93 (< ?v_94 4)) (?v_96 (- t_C_N1_rb_ga1_1_gc2_1_3 t_A_N1_ra_ga1_1_gb1_1_1))) (let ((?v_95 (< ?v_96 4)) (?v_71 (- t_B_N1_ra_rb_gb3_1_2 t_B_N1_ra_rb_gb1_1_2))) (let ((?v_115 (< ?v_71 4)) (?v_114 (> ?v_71 4))) (let ((?v_104 (or ?v_115 ?v_114)) (?v_72 (- t_B_N1_ra_rb_gb2_1_2 t_B_N1_ra_rb_gb1_1_2))) (let ((?v_102 (< ?v_72 4)) (?v_101 (> ?v_72 4)) (?v_73 (- t_B_N1_ra_rb_gb1_1_2 t_B_N1_ra_rb_gb3_1_2))) (let ((?v_107 (> ?v_73 4)) (?v_113 (< ?v_73 4)) (?v_74 (- t_B_N1_ra_rb_gb1_1_2 t_B_N1_ra_rb_gb2_1_2))) (let ((?v_99 (> ?v_74 4)) (?v_98 (< ?v_74 4)) (?v_106 (- t_B_N1_ra_rb_gb1_1_2 t_A_N1_ra_ga3_1_gb1_1_1))) (let ((?v_105 (> ?v_106 1)) (?v_82 (- t_B_N1_ra_rb_gb1_1_2 t_A_N1_ra_ga2_1_gb1_1_1))) (let ((?v_84 (> ?v_82 1)) (?v_134 (or (< ?v_76 1) ?v_77)) (?v_168 (< ?v_78 1))) (let ((?v_135 (or ?v_168 ?v_77)) (?v_138 (< ?v_79 1))) (let ((?v_136 (or ?v_138 ?v_77)) (?v_83 (- t_A_N1_ra_ga3_1_gb1_1_1 t_A_N1_ra_ga2_1_gb1_1_1)) (?v_87 (- t_A_N1_ra_ga2_1_gb1_1_1 t_A_N1_ra_ga3_1_gb1_1_1)) (?v_111 (or ?v_77 (> ?v_92 4))) (?v_112 (or ?v_93 (> ?v_94 4))) (?v_100 (- t_B_N1_ra_rb_gb3_1_2 t_B_N1_ra_rb_gb2_1_2)) (?v_103 (- t_B_N1_ra_rb_gb2_1_2 t_B_N1_ra_rb_gb3_1_2)) (?v_116 (or ?v_67 (< ?v_59 1))) (?v_117 (- t_A_N2_ga1_1_gb1_1_gc1_1_ra_ga3_2_gb1_2_4 t_A_N2_ga1_1_gb1_1_gc1_1_ra_ga1_2_gb1_2_4))) (let ((?v_171 (< ?v_117 5)) (?v_170 (> ?v_117 5))) (let ((?v_147 (or ?v_171 ?v_170)) (?v_118 (- t_A_N2_ga1_1_gb1_1_gc1_1_ra_ga2_2_gb1_2_4 t_A_N2_ga1_1_gb1_1_gc1_1_ra_ga1_2_gb1_2_4))) (let ((?v_145 (< ?v_118 5)) (?v_144 (> ?v_118 5)) (?v_232 (< ?v_119 5)) (?v_121 (> ?v_57 1))) (let ((?v_148 (or ?v_232 ?v_121)) (?v_224 (< ?v_120 5))) (let ((?v_149 (or ?v_224 ?v_121)) (?v_202 (< ?v_122 5))) (let ((?v_150 (or ?v_202 ?v_121)) (?v_129 (< ?v_19 6)) (?v_123 (- t_A_N2_ga1_1_gb1_1_gc1_1_ra_ga1_2_gb1_2_4 t_A_N2_ga1_1_gb1_1_gc1_1_ra_ga3_2_gb1_2_4))) (let ((?v_156 (> ?v_123 5)) (?v_169 (< ?v_123 5)) (?v_124 (- t_A_N2_ga1_1_gb1_1_gc1_1_ra_ga1_2_gb1_2_4 t_A_N2_ga1_1_gb1_1_gc1_1_ra_ga2_2_gb1_2_4))) (let ((?v_140 (> ?v_124 5)) (?v_139 (< ?v_124 5)) (?v_151 (- t_C_N2_rb_ga1_2_gc1_2_6 t_A_N2_ga1_1_gb1_1_gc1_1_ra_ga1_2_gb1_2_4))) (let ((?v_131 (< ?v_151 4)) (?v_153 (- t_C_N2_rb_ga1_2_gc3_2_6 t_A_N2_ga1_1_gb1_1_gc1_1_ra_ga1_2_gb1_2_4))) (let ((?v_152 (< ?v_153 4)) (?v_155 (- t_C_N2_rb_ga1_2_gc2_2_6 t_A_N2_ga1_1_gb1_1_gc1_1_ra_ga1_2_gb1_2_4))) (let ((?v_154 (< ?v_155 4)) (?v_125 (- t_B_N2_ra_rb_gb3_2_5 t_B_N2_ra_rb_gb1_2_5))) (let ((?v_176 (< ?v_125 4)) (?v_175 (> ?v_125 4))) (let ((?v_163 (or ?v_176 ?v_175)) (?v_126 (- t_B_N2_ra_rb_gb2_2_5 t_B_N2_ra_rb_gb1_2_5))) (let ((?v_161 (< ?v_126 4)) (?v_160 (> ?v_126 4)) (?v_127 (- t_B_N2_ra_rb_gb1_2_5 t_B_N2_ra_rb_gb3_2_5))) (let ((?v_166 (> ?v_127 4)) (?v_174 (< ?v_127 4)) (?v_128 (- t_B_N2_ra_rb_gb1_2_5 t_B_N2_ra_rb_gb2_2_5))) (let ((?v_158 (> ?v_128 4)) (?v_157 (< ?v_128 4)) (?v_165 (- t_B_N2_ra_rb_gb1_2_5 t_A_N2_ga1_1_gb1_1_gc1_1_ra_ga3_2_gb1_2_4))) (let ((?v_164 (> ?v_165 1)) (?v_141 (- t_B_N2_ra_rb_gb1_2_5 t_A_N2_ga1_1_gb1_1_gc1_1_ra_ga2_2_gb1_2_4))) (let ((?v_143 (> ?v_141 1)) (?v_199 (or (< ?v_130 1) ?v_131)) (?v_225 (< ?v_132 1))) (let ((?v_200 (or ?v_225 ?v_131)) (?v_203 (< ?v_133 1))) (let ((?v_201 (or ?v_203 ?v_131)) (?v_142 (- t_A_N2_ga1_1_gb1_1_gc1_1_ra_ga3_2_gb1_2_4 t_A_N2_ga1_1_gb1_1_gc1_1_ra_ga2_2_gb1_2_4)) (?v_146 (- t_A_N2_ga1_1_gb1_1_gc1_1_ra_ga2_2_gb1_2_4 t_A_N2_ga1_1_gb1_1_gc1_1_ra_ga3_2_gb1_2_4)) (?v_172 (or ?v_131 (> ?v_151 4))) (?v_173 (or ?v_152 (> ?v_153 4))) (?v_159 (- t_B_N2_ra_rb_gb3_2_5 t_B_N2_ra_rb_gb2_2_5)) (?v_162 (- t_B_N2_ra_rb_gb2_2_5 t_B_N2_ra_rb_gb3_2_5)) (?v_177 (or ?v_121 (< ?v_57 1))) (?v_178 (- t_A_N3_ga1_2_gb1_2_gc1_2_ra_ga3_3_gb1_3_7 t_A_N3_ga1_2_gb1_2_gc1_2_ra_ga1_3_gb1_3_7))) (let ((?v_228 (< ?v_178 5)) (?v_227 (> ?v_178 5))) (let ((?v_210 (or ?v_228 ?v_227)) (?v_179 (- t_A_N3_ga1_2_gb1_2_gc1_2_ra_ga2_3_gb1_3_7 t_A_N3_ga1_2_gb1_2_gc1_2_ra_ga1_3_gb1_3_7))) (let ((?v_208 (< ?v_179 5)) (?v_207 (> ?v_179 5)) (?v_190 (< ?v_60 1)) (?v_180 (> ?v_60 1))) (let ((?v_211 (or ?v_190 ?v_180)) (?v_187 (< ?v_38 6)) (?v_181 (- t_A_N3_ga1_2_gb1_2_gc1_2_ra_ga1_3_gb1_3_7 t_A_N3_ga1_2_gb1_2_gc1_2_ra_ga3_3_gb1_3_7))) (let ((?v_216 (> ?v_181 5)) (?v_182 (- t_A_N3_ga1_2_gb1_2_gc1_2_ra_ga1_3_gb1_3_7 t_A_N3_ga1_2_gb1_2_gc1_2_ra_ga2_3_gb1_3_7))) (let ((?v_204 (> ?v_182 5)) (?v_213 (- t_C_N3_rb_ga1_3_gc3_3_9 t_A_N3_ga1_2_gb1_2_gc1_2_ra_ga1_3_gb1_3_7))) (let ((?v_212 (< ?v_213 4)) (?v_215 (- t_C_N3_rb_ga1_3_gc2_3_9 t_A_N3_ga1_2_gb1_2_gc1_2_ra_ga1_3_gb1_3_7))) (let ((?v_214 (< ?v_215 4)) (?v_197 (- t_C_N3_rb_ga1_3_gc1_3_9 t_A_N3_ga1_2_gb1_2_gc1_2_ra_ga1_3_gb1_3_7))) (let ((?v_198 (< ?v_197 4)) (?v_183 (- t_B_N3_ra_rb_gb3_3_8 t_B_N3_ra_rb_gb1_3_8))) (let ((?v_231 (< ?v_183 4)) (?v_230 (> ?v_183 4))) (let ((?v_188 (or ?v_231 ?v_230)) (?v_184 (- t_B_N3_ra_rb_gb2_3_8 t_B_N3_ra_rb_gb1_3_8))) (let ((?v_219 (< ?v_184 4)) (?v_218 (> ?v_184 4))) (let ((?v_189 (or ?v_219 ?v_218)) (?v_185 (- t_B_N3_ra_rb_gb1_3_8 t_B_N3_ra_rb_gb3_3_8))) (let ((?v_195 (> ?v_185 4)) (?v_186 (- t_B_N3_ra_rb_gb1_3_8 t_B_N3_ra_rb_gb2_3_8))) (let ((?v_196 (> ?v_186 4)) (?v_192 (- t_B_N3_ra_rb_gb1_3_8 t_A_N3_ga1_2_gb1_2_gc1_2_ra_ga3_3_gb1_3_7))) (let ((?v_191 (> ?v_192 1)) (?v_194 (- t_B_N3_ra_rb_gb1_3_8 t_A_N3_ga1_2_gb1_2_gc1_2_ra_ga2_3_gb1_3_7))) (let ((?v_193 (> ?v_194 1)) (?v_221 (or ?v_180 ?v_190)) (?v_226 (< ?v_192 1))) (let ((?v_222 (or ?v_191 ?v_226)) (?v_206 (< ?v_194 1)) (?v_205 (- t_A_N3_ga1_2_gb1_2_gc1_2_ra_ga3_3_gb1_3_7 t_A_N3_ga1_2_gb1_2_gc1_2_ra_ga2_3_gb1_3_7)) (?v_209 (- t_A_N3_ga1_2_gb1_2_gc1_2_ra_ga2_3_gb1_3_7 t_A_N3_ga1_2_gb1_2_gc1_2_ra_ga3_3_gb1_3_7)) (?v_229 (or ?v_212 (> ?v_213 4))) (?v_223 (> ?v_215 4)) (?v_217 (- t_B_N3_ra_rb_gb3_3_8 t_B_N3_ra_rb_gb2_3_8)) (?v_220 (- t_B_N3_ra_rb_gb2_3_8 t_B_N3_ra_rb_gb3_3_8))) (and (= St_spy_variable (+ 1 t_Init_0)) (>= t_Goal_10 t_Init_0) (>= (- t_A_N1_ra_ga2_1_gb1_1_1 t_Init_0) 0) (>= ?v_3 5) (>= (- t_B_N1_ra_rb_gb2_1_2 t_Init_0) 0) (>= ?v_8 4) (>= (- t_C_N1_rb_ga1_1_gc2_1_3 t_Init_0) 0) (>= ?v_13 1) (>= (- t_A_N1_ra_ga3_1_gb1_1_1 t_Init_0) 0) (>= ?v_14 5) (>= (- t_B_N1_ra_rb_gb3_1_2 t_Init_0) 0) (>= ?v_16 4) (>= (- t_C_N1_rb_ga1_1_gc3_1_3 t_Init_0) 0) (>= ?v_18 1) (>= (- t_A_N2_ga1_1_gb1_1_gc1_1_ra_ga2_2_gb1_2_4 t_Init_0) 0) (>= ?v_22 5) (>= (- t_B_N2_ra_rb_gb2_2_5 t_Init_0) 0) (>= ?v_27 4) (>= (- t_C_N2_rb_ga1_2_gc2_2_6 t_Init_0) 0) (>= ?v_32 1) (>= (- t_A_N2_ga1_1_gb1_1_gc1_1_ra_ga3_2_gb1_2_4 t_Init_0) 0) (>= ?v_33 5) (>= (- t_B_N2_ra_rb_gb3_2_5 t_Init_0) 0) (>= ?v_35 4) (>= (- t_C_N2_rb_ga1_2_gc3_2_6 t_Init_0) 0) (>= ?v_37 1) (>= (- t_C_N3_rb_ga1_3_gc1_3_9 t_Init_0) 0) (>= ?v_44 1) (>= (- t_A_N3_ga1_2_gb1_2_gc1_2_ra_ga2_3_gb1_3_7 t_Init_0) 0) (>= ?v_45 5) (>= (- t_B_N3_ra_rb_gb2_3_8 t_Init_0) 0) (>= ?v_50 4) (>= (- t_C_N3_rb_ga1_3_gc2_3_9 t_Init_0) 0) (>= ?v_52 1) (>= (- t_A_N3_ga1_2_gb1_2_gc1_2_ra_ga3_3_gb1_3_7 t_Init_0) 0) (>= ?v_53 5) (>= (- t_B_N3_ra_rb_gb3_3_8 t_Init_0) 0) (>= ?v_55 4) (>= (- t_C_N2_rb_ga1_2_gc1_2_6 t_Init_0) 0) (>= ?v_21 1) (>= (- t_B_N2_ra_rb_gb1_2_5 t_Init_0) 0) (>= ?v_20 4) (>= (- t_C_N1_rb_ga1_1_gc1_1_3 t_Init_0) 0) (>= ?v_2 1) (>= (- t_B_N1_ra_rb_gb1_1_2 t_Init_0) 0) (>= ?v_1 4) (>= (- t_A_N1_ra_ga1_1_gb1_1_1 t_Init_0) 0) (>= ?v_0 5) (>= (- t_A_N2_ga1_1_gb1_1_gc1_1_ra_ga1_2_gb1_2_4 t_Init_0) 0) (>= ?v_19 5) (>= (- t_A_N3_ga1_2_gb1_2_gc1_2_ra_ga1_3_gb1_3_7 t_Init_0) 0) (>= ?v_38 5) (>= (- t_B_N3_ra_rb_gb1_3_8 t_Init_0) 0) (>= ?v_39 4) (>= (- t_C_N3_rb_ga1_3_gc3_3_9 t_Init_0) 0) (>= ?v_62 1) ?v_4 ?v_5 ?v_6 (>= ?v_0 6) ?v_9 ?v_10 ?v_11 (>= ?v_1 5) (>= ?v_2 2) (>= ?v_3 6) ?v_4 ?v_5 ?v_6 ?v_6 (>= ?v_7 0) (>= ?v_8 5) ?v_9 ?v_10 ?v_11 ?v_11 (>= ?v_12 0) (>= ?v_13 2) (>= ?v_14 6) ?v_4 ?v_5 ?v_5 (>= ?v_15 0) (>= ?v_16 5) ?v_9 ?v_10 ?v_10 (>= ?v_17 0) (>= ?v_18 2) ?v_23 ?v_24 ?v_25 (>= ?v_19 6) ?v_28 ?v_29 ?v_30 (>= ?v_20 5) (>= ?v_21 2) (>= ?v_79 1) ?v_9 (>= (- t_A_N2_ga1_1_gb1_1_gc1_1_ra_ga2_2_gb1_2_4 t_B_N1_ra_rb_gb1_1_2) 4) ?v_4 (>= ?v_68 5) (>= ?v_22 6) ?v_23 ?v_24 ?v_25 ?v_25 (>= ?v_26 0) (>= ?v_27 5) ?v_28 ?v_29 ?v_30 ?v_30 (>= ?v_31 0) (>= ?v_32 2) (>= ?v_78 1) ?v_9 (>= (- t_A_N2_ga1_1_gb1_1_gc1_1_ra_ga3_2_gb1_2_4 t_B_N1_ra_rb_gb1_1_2) 4) ?v_4 (>= ?v_66 5) (>= ?v_33 6) ?v_23 ?v_24 ?v_24 (>= ?v_34 0) (>= ?v_35 5) ?v_28 ?v_29 ?v_29 (>= ?v_36 0) (>= ?v_37 2) ?v_46 ?v_47 ?v_48 (>= ?v_38 6) ?v_40 ?v_41 ?v_42 (>= ?v_39 5) ?v_40 ?v_41 ?v_42 ?v_42 (>= ?v_43 0) (>= ?v_44 2) (>= ?v_133 1) ?v_28 (>= (- t_A_N3_ga1_2_gb1_2_gc1_2_ra_ga2_3_gb1_3_7 t_B_N2_ra_rb_gb1_2_5) 4) ?v_23 (>= ?v_122 5) (>= ?v_45 6) ?v_46 ?v_47 ?v_48 ?v_48 (>= ?v_49 0) (>= ?v_50 5) ?v_40 ?v_41 ?v_41 (>= ?v_51 0) (>= ?v_52 2) (>= ?v_132 1) ?v_28 (>= (- t_A_N3_ga1_2_gb1_2_gc1_2_ra_ga3_3_gb1_3_7 t_B_N2_ra_rb_gb1_2_5) 4) ?v_23 (>= ?v_120 5) (>= ?v_53 6) ?v_46 ?v_47 ?v_47 (>= ?v_54 0) (>= ?v_55 5) ?v_28 ?v_28 (>= ?v_56 0) (>= ?v_130 1) ?v_23 ?v_23 (>= ?v_57 0) (>= (- t_A_N3_ga1_2_gb1_2_gc1_2_ra_ga1_3_gb1_3_7 t_B_N2_ra_rb_gb1_2_5) 4) ?v_9 ?v_9 (>= ?v_58 0) (>= ?v_76 1) ?v_4 ?v_4 (>= ?v_59 0) (>= (- t_A_N2_ga1_1_gb1_1_gc1_1_ra_ga1_2_gb1_2_4 t_B_N1_ra_rb_gb1_1_2) 4) (>= ?v_65 5) (>= ?v_119 5) ?v_46 (>= ?v_60 0) ?v_40 (>= ?v_61 0) (>= ?v_62 2) ?v_88 (or ?v_86 ?v_85) ?v_89 ?v_90 ?v_91 (or ?v_75 ?v_67) (or ?v_97 ?v_108) (or ?v_81 ?v_80) (or ?v_77 (< ?v_2 2)) (or ?v_93 (< ?v_18 2)) (or ?v_95 (< ?v_13 2)) ?v_104 (or ?v_102 ?v_101) (or ?v_107 ?v_113) (or ?v_99 ?v_98) (or ?v_67 ?v_75) (or ?v_105 (< ?v_14 6)) (or ?v_84 (< ?v_3 6)) ?v_134 ?v_135 ?v_136 (or ?v_80 ?v_81) (or (< ?v_82 5) ?v_81) (or (< (- t_B_N1_ra_rb_gb3_1_2 t_A_N1_ra_ga2_1_gb1_1_1) 5) ?v_81) (or (< ?v_83 5) (> ?v_83 5)) (or (< (- t_B_N1_ra_rb_gb2_1_2 t_A_N1_ra_ga2_1_gb1_1_1) 5) ?v_81) (or (< (- t_A_N2_ga1_1_gb1_1_gc1_1_ra_ga1_2_gb1_2_4 t_A_N1_ra_ga2_1_gb1_1_1) 5) ?v_84) (or (< (- t_A_N2_ga1_1_gb1_1_gc1_1_ra_ga3_2_gb1_2_4 t_A_N1_ra_ga2_1_gb1_1_1) 5) ?v_84) (or (< (- t_A_N2_ga1_1_gb1_1_gc1_1_ra_ga2_2_gb1_2_4 t_A_N1_ra_ga2_1_gb1_1_1) 5) ?v_84) (or ?v_85 ?v_86) (or (> ?v_87 5) (< ?v_87 5)) ?v_88 ?v_89 ?v_90 ?v_91 ?v_111 ?v_112 (or ?v_95 (> ?v_96 4)) (or ?v_97 (< (- t_B_N1_ra_rb_gb2_1_2 t_A_N1_ra_ga3_1_gb1_1_1) 5)) (or ?v_98 ?v_99) (or (< (- t_C_N1_rb_ga1_1_gc1_1_3 t_B_N1_ra_rb_gb2_1_2) 4) ?v_99) (or (< (- t_C_N1_rb_ga1_1_gc3_1_3 t_B_N1_ra_rb_gb2_1_2) 4) ?v_99) (or (< ?v_100 4) (> ?v_100 4)) (or (< (- t_C_N1_rb_ga1_1_gc2_1_3 t_B_N1_ra_rb_gb2_1_2) 4) ?v_99) (or ?v_101 ?v_102) (or (> ?v_103 4) (< ?v_103 4)) ?v_104 ?v_116 (or ?v_105 (< ?v_106 1)) (or ?v_107 (< (- t_C_N1_rb_ga1_1_gc2_1_3 t_B_N1_ra_rb_gb3_1_2) 4)) (or (< (- t_A_N2_ga1_1_gb1_1_gc1_1_ra_ga1_2_gb1_2_4 t_C_N1_rb_ga1_1_gc2_1_3) 1) ?v_95) (or (< (- t_A_N2_ga1_1_gb1_1_gc1_1_ra_ga3_2_gb1_2_4 t_C_N1_rb_ga1_1_gc2_1_3) 1) ?v_95) (or (< (- t_A_N2_ga1_1_gb1_1_gc1_1_ra_ga2_2_gb1_2_4 t_C_N1_rb_ga1_1_gc2_1_3) 1) ?v_95) (or ?v_108 ?v_97) (or (< ?v_106 5) ?v_97) (or (< (- t_B_N1_ra_rb_gb3_1_2 t_A_N1_ra_ga3_1_gb1_1_1) 5) ?v_97) (or (< (- t_A_N2_ga1_1_gb1_1_gc1_1_ra_ga1_2_gb1_2_4 t_A_N1_ra_ga3_1_gb1_1_1) 5) ?v_105) (or (< (- t_A_N2_ga1_1_gb1_1_gc1_1_ra_ga3_2_gb1_2_4 t_A_N1_ra_ga3_1_gb1_1_1) 5) ?v_105) (or (< (- t_A_N2_ga1_1_gb1_1_gc1_1_ra_ga2_2_gb1_2_4 t_A_N1_ra_ga3_1_gb1_1_1) 5) ?v_105) (or ?v_109 ?v_110) ?v_89 ?v_90 ?v_91 ?v_111 ?v_112 (or ?v_113 ?v_107) (or (< (- t_C_N1_rb_ga1_1_gc1_1_3 t_B_N1_ra_rb_gb3_1_2) 4) ?v_107) (or (< (- t_C_N1_rb_ga1_1_gc3_1_3 t_B_N1_ra_rb_gb3_1_2) 4) ?v_107) (or ?v_114 ?v_115) ?v_116 (or (< (- t_A_N2_ga1_1_gb1_1_gc1_1_ra_ga1_2_gb1_2_4 t_C_N1_rb_ga1_1_gc3_1_3) 1) ?v_93) (or (< (- t_A_N2_ga1_1_gb1_1_gc1_1_ra_ga3_2_gb1_2_4 t_C_N1_rb_ga1_1_gc3_1_3) 1) ?v_93) (or (< (- t_A_N2_ga1_1_gb1_1_gc1_1_ra_ga2_2_gb1_2_4 t_C_N1_rb_ga1_1_gc3_1_3) 1) ?v_93) ?v_147 (or ?v_145 ?v_144) ?v_148 ?v_149 ?v_150 (or ?v_129 ?v_121) (or ?v_156 ?v_169) (or ?v_140 ?v_139) (or ?v_131 (< ?v_21 2)) (or ?v_152 (< ?v_37 2)) (or ?v_154 (< ?v_32 2)) ?v_163 (or ?v_161 ?v_160) (or ?v_166 ?v_174) (or ?v_158 ?v_157) (or ?v_121 ?v_129) (or ?v_164 (< ?v_33 6)) (or ?v_143 (< ?v_22 6)) ?v_199 ?v_200 ?v_201 ?v_134 ?v_135 ?v_136 (or ?v_67 ?v_137) ?v_89 ?v_90 (or ?v_77 ?v_138) (or ?v_139 ?v_140) (or (< ?v_141 5) ?v_140) (or (< (- t_B_N2_ra_rb_gb3_2_5 t_A_N2_ga1_1_gb1_1_gc1_1_ra_ga2_2_gb1_2_4) 5) ?v_140) (or (< ?v_142 5) (> ?v_142 5)) (or (< (- t_B_N2_ra_rb_gb2_2_5 t_A_N2_ga1_1_gb1_1_gc1_1_ra_ga2_2_gb1_2_4) 5) ?v_140) (or (< (- t_A_N3_ga1_2_gb1_2_gc1_2_ra_ga1_3_gb1_3_7 t_A_N2_ga1_1_gb1_1_gc1_1_ra_ga2_2_gb1_2_4) 5) ?v_143) (or (< (- t_A_N3_ga1_2_gb1_2_gc1_2_ra_ga3_3_gb1_3_7 t_A_N2_ga1_1_gb1_1_gc1_1_ra_ga2_2_gb1_2_4) 5) ?v_143) (or (< (- t_A_N3_ga1_2_gb1_2_gc1_2_ra_ga2_3_gb1_3_7 t_A_N2_ga1_1_gb1_1_gc1_1_ra_ga2_2_gb1_2_4) 5) ?v_143) (or ?v_144 ?v_145) (or (> ?v_146 5) (< ?v_146 5)) ?v_147 ?v_148 ?v_149 ?v_150 ?v_172 ?v_173 (or ?v_154 (> ?v_155 4)) (or ?v_156 (< (- t_B_N2_ra_rb_gb2_2_5 t_A_N2_ga1_1_gb1_1_gc1_1_ra_ga3_2_gb1_2_4) 5)) (or ?v_157 ?v_158) (or (< (- t_C_N2_rb_ga1_2_gc1_2_6 t_B_N2_ra_rb_gb2_2_5) 4) ?v_158) (or (< (- t_C_N2_rb_ga1_2_gc3_2_6 t_B_N2_ra_rb_gb2_2_5) 4) ?v_158) (or (< ?v_159 4) (> ?v_159 4)) (or (< (- t_C_N2_rb_ga1_2_gc2_2_6 t_B_N2_ra_rb_gb2_2_5) 4) ?v_158) (or ?v_160 ?v_161) (or (> ?v_162 4) (< ?v_162 4)) ?v_163 ?v_177 (or ?v_164 (< ?v_165 1)) (or ?v_166 (< (- t_C_N2_rb_ga1_2_gc2_2_6 t_B_N2_ra_rb_gb3_2_5) 4)) (or (< (- t_A_N3_ga1_2_gb1_2_gc1_2_ra_ga1_3_gb1_3_7 t_C_N2_rb_ga1_2_gc2_2_6) 1) ?v_154) (or (< (- t_A_N3_ga1_2_gb1_2_gc1_2_ra_ga3_3_gb1_3_7 t_C_N2_rb_ga1_2_gc2_2_6) 1) ?v_154) (or (< (- t_A_N3_ga1_2_gb1_2_gc1_2_ra_ga2_3_gb1_3_7 t_C_N2_rb_ga1_2_gc2_2_6) 1) ?v_154) ?v_134 ?v_135 (or ?v_67 ?v_167) ?v_89 (or ?v_77 ?v_168) (or ?v_169 ?v_156) (or (< ?v_165 5) ?v_156) (or (< (- t_B_N2_ra_rb_gb3_2_5 t_A_N2_ga1_1_gb1_1_gc1_1_ra_ga3_2_gb1_2_4) 5) ?v_156) (or (< (- t_A_N3_ga1_2_gb1_2_gc1_2_ra_ga1_3_gb1_3_7 t_A_N2_ga1_1_gb1_1_gc1_1_ra_ga3_2_gb1_2_4) 5) ?v_164) (or (< (- t_A_N3_ga1_2_gb1_2_gc1_2_ra_ga3_3_gb1_3_7 t_A_N2_ga1_1_gb1_1_gc1_1_ra_ga3_2_gb1_2_4) 5) ?v_164) (or (< (- t_A_N3_ga1_2_gb1_2_gc1_2_ra_ga2_3_gb1_3_7 t_A_N2_ga1_1_gb1_1_gc1_1_ra_ga3_2_gb1_2_4) 5) ?v_164) (or ?v_170 ?v_171) ?v_148 ?v_149 ?v_150 ?v_172 ?v_173 (or ?v_174 ?v_166) (or (< (- t_C_N2_rb_ga1_2_gc1_2_6 t_B_N2_ra_rb_gb3_2_5) 4) ?v_166) (or (< (- t_C_N2_rb_ga1_2_gc3_2_6 t_B_N2_ra_rb_gb3_2_5) 4) ?v_166) (or ?v_175 ?v_176) ?v_177 (or (< (- t_A_N3_ga1_2_gb1_2_gc1_2_ra_ga1_3_gb1_3_7 t_C_N2_rb_ga1_2_gc3_2_6) 1) ?v_152) (or (< (- t_A_N3_ga1_2_gb1_2_gc1_2_ra_ga3_3_gb1_3_7 t_C_N2_rb_ga1_2_gc3_2_6) 1) ?v_152) (or (< (- t_A_N3_ga1_2_gb1_2_gc1_2_ra_ga2_3_gb1_3_7 t_C_N2_rb_ga1_2_gc3_2_6) 1) ?v_152) ?v_210 (or ?v_208 ?v_207) ?v_211 (or ?v_187 ?v_180) (or ?v_216 (< ?v_181 5)) (or ?v_204 (< ?v_182 5)) (or ?v_212 (< ?v_62 2)) (or ?v_214 (< ?v_52 2)) (or ?v_198 (< ?v_44 2)) ?v_188 ?v_189 (or ?v_195 (< ?v_185 4)) (or ?v_196 (< ?v_186 4)) (or ?v_180 ?v_187) (or ?v_191 (< ?v_53 6)) (or ?v_193 (< ?v_45 6)) ?v_188 ?v_189 ?v_221 ?v_222 (or ?v_193 ?v_206) (or ?v_195 (< (- t_C_N3_rb_ga1_3_gc1_3_9 t_B_N3_ra_rb_gb3_3_8) 4)) (or ?v_196 (< (- t_C_N3_rb_ga1_3_gc1_3_9 t_B_N3_ra_rb_gb2_3_8) 4)) (or (> ?v_197 4) ?v_198) ?v_199 ?v_200 ?v_201 (or ?v_121 ?v_202) ?v_148 ?v_149 (or ?v_131 ?v_203) (or (< ?v_194 5) ?v_204) (or (< (- t_B_N3_ra_rb_gb3_3_8 t_A_N3_ga1_2_gb1_2_gc1_2_ra_ga2_3_gb1_3_7) 5) ?v_204) (or (< ?v_205 5) (> ?v_205 5)) (or (< (- t_B_N3_ra_rb_gb2_3_8 t_A_N3_ga1_2_gb1_2_gc1_2_ra_ga2_3_gb1_3_7) 5) ?v_204) (or ?v_206 ?v_193) (or ?v_207 ?v_208) (or (> ?v_209 5) (< ?v_209 5)) ?v_210 ?v_211 ?v_229 (or ?v_214 ?v_223) (or ?v_216 (< (- t_B_N3_ra_rb_gb2_3_8 t_A_N3_ga1_2_gb1_2_gc1_2_ra_ga3_3_gb1_3_7) 5)) (or (< (- t_C_N3_rb_ga1_3_gc3_3_9 t_B_N3_ra_rb_gb2_3_8) 4) ?v_196) (or (< ?v_217 4) (> ?v_217 4)) (or (< (- t_C_N3_rb_ga1_3_gc2_3_9 t_B_N3_ra_rb_gb2_3_8) 4) ?v_196) (or ?v_218 ?v_219) (or (> ?v_220 4) (< ?v_220 4)) ?v_188 ?v_221 ?v_222 (or ?v_195 (< (- t_C_N3_rb_ga1_3_gc2_3_9 t_B_N3_ra_rb_gb3_3_8) 4)) (or ?v_223 ?v_214) ?v_199 ?v_200 (or ?v_121 ?v_224) ?v_148 (or ?v_131 ?v_225) (or (< ?v_192 5) ?v_216) (or (< (- t_B_N3_ra_rb_gb3_3_8 t_A_N3_ga1_2_gb1_2_gc1_2_ra_ga3_3_gb1_3_7) 5) ?v_216) (or ?v_226 ?v_191) (or ?v_227 ?v_228) ?v_211 ?v_229 (or (< (- t_C_N3_rb_ga1_3_gc3_3_9 t_B_N3_ra_rb_gb3_3_8) 4) ?v_195) (or ?v_230 ?v_231) ?v_177 ?v_199 ?v_148 (or ?v_121 ?v_232) ?v_116 ?v_134 ?v_89 (or ?v_67 ?v_233) ?v_211 ?v_229)))))))))))))))))))))))))))))))))))))))))))))))))))))))))))))))))))))))))))))))
(check-sat)
(exit)
